firmware/ip/axis_signal_gen_v6/yosys/data_writer/model/design_smt2.smt2
; SMT-LIBv2 description generated by Yosys 0.59+110 (git sha1 25ba41f42, aarch64-apple-darwin23.5-clang++ 18.1.8 -fPIC -O3)
; yosys-smt2-module $paramod/synchronizer_n_sv/N=s32'00000000000000000000000000000010
(declare-sort |$paramod/synchronizer_n_sv/N=s32'00000000000000000000000000000010_s| 0)
(declare-fun |$paramod/synchronizer_n_sv/N=s32'00000000000000000000000000000010_is| (|$paramod/synchronizer_n_sv/N=s32'00000000000000000000000000000010_s|) Bool)
(declare-fun |$paramod/synchronizer_n_sv/N=s32'00000000000000000000000000000010#0| (|$paramod/synchronizer_n_sv/N=s32'00000000000000000000000000000010_s|) Bool) ; \clk
; yosys-smt2-input clk 1
; yosys-smt2-wire clk 1
; yosys-smt2-clock clk posedge
; yosys-smt2-witness {"offset": 0, "path": ["\\clk"], "smtname": "clk", "smtoffset": 0, "type": "posedge", "width": 1}
; yosys-smt2-witness {"offset": 0, "path": ["\\clk"], "smtname": "clk", "smtoffset": 0, "type": "input", "width": 1}
(define-fun |$paramod/synchronizer_n_sv/N=s32'00000000000000000000000000000010_n clk| ((state |$paramod/synchronizer_n_sv/N=s32'00000000000000000000000000000010_s|)) Bool (|$paramod/synchronizer_n_sv/N=s32'00000000000000000000000000000010#0| state))
(declare-fun |$paramod/synchronizer_n_sv/N=s32'00000000000000000000000000000010#1| (|$paramod/synchronizer_n_sv/N=s32'00000000000000000000000000000010_s|) Bool) ; \data_in
; yosys-smt2-input data_in 1
; yosys-smt2-wire data_in 1
; yosys-smt2-witness {"offset": 0, "path": ["\\data_in"], "smtname": "data_in", "smtoffset": 0, "type": "input", "width": 1}
(define-fun |$paramod/synchronizer_n_sv/N=s32'00000000000000000000000000000010_n data_in| ((state |$paramod/synchronizer_n_sv/N=s32'00000000000000000000000000000010_s|)) Bool (|$paramod/synchronizer_n_sv/N=s32'00000000000000000000000000000010#1| state))
; yosys-smt2-anyinit $paramod/synchronizer_n_sv/N=s32'00000000000000000000000000000010#2 2 synchronizer_n_sv.sv:13.5-17.60
; yosys-smt2-witness {"offset": 0, "path": ["\\data_int_reg"], "smtname": 2, "smtoffset": 0, "type": "init", "width": 2}
(declare-fun |$paramod/synchronizer_n_sv/N=s32'00000000000000000000000000000010#2| (|$paramod/synchronizer_n_sv/N=s32'00000000000000000000000000000010_s|) (_ BitVec 2)) ; \data_int_reg
; yosys-smt2-register data_int_reg 2
; yosys-smt2-wire data_int_reg 2
(define-fun |$paramod/synchronizer_n_sv/N=s32'00000000000000000000000000000010_n data_int_reg| ((state |$paramod/synchronizer_n_sv/N=s32'00000000000000000000000000000010_s|)) (_ BitVec 2) (|$paramod/synchronizer_n_sv/N=s32'00000000000000000000000000000010#2| state))
; yosys-smt2-output data_out 1
; yosys-smt2-wire data_out 1
(define-fun |$paramod/synchronizer_n_sv/N=s32'00000000000000000000000000000010_n data_out| ((state |$paramod/synchronizer_n_sv/N=s32'00000000000000000000000000000010_s|)) Bool (= ((_ extract 1 1) (|$paramod/synchronizer_n_sv/N=s32'00000000000000000000000000000010#2| state)) #b1))
(declare-fun |$paramod/synchronizer_n_sv/N=s32'00000000000000000000000000000010#3| (|$paramod/synchronizer_n_sv/N=s32'00000000000000000000000000000010_s|) Bool) ; \rstn
; yosys-smt2-input rstn 1
; yosys-smt2-wire rstn 1
; yosys-smt2-witness {"offset": 0, "path": ["\\rstn"], "smtname": "rstn", "smtoffset": 0, "type": "input", "width": 1}
(define-fun |$paramod/synchronizer_n_sv/N=s32'00000000000000000000000000000010_n rstn| ((state |$paramod/synchronizer_n_sv/N=s32'00000000000000000000000000000010_s|)) Bool (|$paramod/synchronizer_n_sv/N=s32'00000000000000000000000000000010#3| state))
(define-fun |$paramod/synchronizer_n_sv/N=s32'00000000000000000000000000000010#4| ((state |$paramod/synchronizer_n_sv/N=s32'00000000000000000000000000000010_s|)) (_ BitVec 1) (bvnot (ite (|$paramod/synchronizer_n_sv/N=s32'00000000000000000000000000000010#0| state) #b1 #b0))) ; $auto$rtlil.cc:3347:Not$189
; yosys-smt2-assume 0 $auto$formalff.cc:987:execute$190
(define-fun |$paramod/synchronizer_n_sv/N=s32'00000000000000000000000000000010_u 0| ((state |$paramod/synchronizer_n_sv/N=s32'00000000000000000000000000000010_s|)) Bool (or (= ((_ extract 0 0) (|$paramod/synchronizer_n_sv/N=s32'00000000000000000000000000000010#4| state)) #b1) (not true))) ; $auto$formalff.cc:987:execute$190
(define-fun |$paramod/synchronizer_n_sv/N=s32'00000000000000000000000000000010#5| ((state |$paramod/synchronizer_n_sv/N=s32'00000000000000000000000000000010_s|)) (_ BitVec 2) (ite (|$paramod/synchronizer_n_sv/N=s32'00000000000000000000000000000010#3| state) (concat ((_ extract 0 0) (|$paramod/synchronizer_n_sv/N=s32'00000000000000000000000000000010#2| state)) (ite (|$paramod/synchronizer_n_sv/N=s32'00000000000000000000000000000010#1| state) #b1 #b0)) #b00)) ; $0\data_int_reg[1:0]
(define-fun |$paramod/synchronizer_n_sv/N=s32'00000000000000000000000000000010_a| ((state |$paramod/synchronizer_n_sv/N=s32'00000000000000000000000000000010_s|)) Bool true)
(define-fun |$paramod/synchronizer_n_sv/N=s32'00000000000000000000000000000010_u| ((state |$paramod/synchronizer_n_sv/N=s32'00000000000000000000000000000010_s|)) Bool 
  (|$paramod/synchronizer_n_sv/N=s32'00000000000000000000000000000010_u 0| state)
)
(define-fun |$paramod/synchronizer_n_sv/N=s32'00000000000000000000000000000010_i| ((state |$paramod/synchronizer_n_sv/N=s32'00000000000000000000000000000010_s|)) Bool true)
(define-fun |$paramod/synchronizer_n_sv/N=s32'00000000000000000000000000000010_h| ((state |$paramod/synchronizer_n_sv/N=s32'00000000000000000000000000000010_s|)) Bool true)
(define-fun |$paramod/synchronizer_n_sv/N=s32'00000000000000000000000000000010_t| ((state |$paramod/synchronizer_n_sv/N=s32'00000000000000000000000000000010_s|) (next_state |$paramod/synchronizer_n_sv/N=s32'00000000000000000000000000000010_s|)) Bool 
  (= (|$paramod/synchronizer_n_sv/N=s32'00000000000000000000000000000010#5| state) (|$paramod/synchronizer_n_sv/N=s32'00000000000000000000000000000010#2| next_state)) ; $procdff$179 \data_int_reg
) ; end of module $paramod/synchronizer_n_sv/N=s32'00000000000000000000000000000010
; yosys-smt2-module data_writer_sv
(declare-sort |data_writer_sv_s| 0)
(declare-fun |data_writer_sv_is| (|data_writer_sv_s|) Bool)
(declare-fun |data_writer_sv#0| (|data_writer_sv_s|) (_ BitVec 32)) ; \START_ADDR_REG
; yosys-smt2-input START_ADDR_REG 32
; yosys-smt2-wire START_ADDR_REG 32
; yosys-smt2-witness {"offset": 0, "path": ["\\START_ADDR_REG"], "smtname": "START_ADDR_REG", "smtoffset": 0, "type": "input", "width": 32}
(define-fun |data_writer_sv_n START_ADDR_REG| ((state |data_writer_sv_s|)) (_ BitVec 32) (|data_writer_sv#0| state))
(declare-fun |data_writer_sv#1| (|data_writer_sv_s|) Bool) ; \WE_REG
; yosys-smt2-input WE_REG 1
; yosys-smt2-wire WE_REG 1
; yosys-smt2-witness {"offset": 0, "path": ["\\WE_REG"], "smtname": "WE_REG", "smtoffset": 0, "type": "input", "width": 1}
(define-fun |data_writer_sv_n WE_REG| ((state |data_writer_sv_s|)) Bool (|data_writer_sv#1| state))
; yosys-smt2-cell $paramod/synchronizer_n_sv/N=s32'00000000000000000000000000000010 sync0
; yosys-smt2-witness {"path": ["\\sync0"], "smtname": "sync0", "type": "cell"}
(declare-fun |data_writer_sv#2| (|data_writer_sv_s|) Bool) ; \WE_REG_resync
(declare-fun |data_writer_sv_h sync0| (|data_writer_sv_s|) |$paramod/synchronizer_n_sv/N=s32'00000000000000000000000000000010_s|)
; yosys-smt2-wire WE_REG_resync 1
(define-fun |data_writer_sv_n WE_REG_resync| ((state |data_writer_sv_s|)) Bool (|data_writer_sv#2| state))
(declare-fun |data_writer_sv#3| (|data_writer_sv_s|) Bool) ; \clk
; yosys-smt2-input clk 1
; yosys-smt2-wire clk 1
; yosys-smt2-clock clk posedge
; yosys-smt2-witness {"offset": 0, "path": ["\\clk"], "smtname": "clk", "smtoffset": 0, "type": "posedge", "width": 1}
; yosys-smt2-witness {"offset": 0, "path": ["\\clk"], "smtname": "clk", "smtoffset": 0, "type": "input", "width": 1}
(define-fun |data_writer_sv_n clk| ((state |data_writer_sv_s|)) Bool (|data_writer_sv#3| state))
; yosys-smt2-anyinit data_writer_sv#4 16 data_writer_sv.sv:63.5-100.8
; yosys-smt2-witness {"offset": 0, "path": ["\\mem_addr_high_r"], "smtname": 4, "smtoffset": 0, "type": "init", "width": 16}
(declare-fun |data_writer_sv#4| (|data_writer_sv_s|) (_ BitVec 16)) ; \mem_addr_high_r
; yosys-smt2-output mem_addr 16
; yosys-smt2-wire mem_addr 16
(define-fun |data_writer_sv_n mem_addr| ((state |data_writer_sv_s|)) (_ BitVec 16) (|data_writer_sv#4| state))
; yosys-smt2-anyinit data_writer_sv#5 20 data_writer_sv.sv:63.5-100.8
; yosys-smt2-witness {"offset": 0, "path": ["\\mem_addr_full"], "smtname": 5, "smtoffset": 0, "type": "init", "width": 20}
(declare-fun |data_writer_sv#5| (|data_writer_sv_s|) (_ BitVec 20)) ; \mem_addr_full
; yosys-smt2-register mem_addr_full 20
; yosys-smt2-wire mem_addr_full 20
(define-fun |data_writer_sv_n mem_addr_full| ((state |data_writer_sv_s|)) (_ BitVec 20) (|data_writer_sv#5| state))
; yosys-smt2-wire mem_addr_high 16
(define-fun |data_writer_sv_n mem_addr_high| ((state |data_writer_sv_s|)) (_ BitVec 16) ((_ extract 19 4) (|data_writer_sv#5| state)))
; yosys-smt2-register mem_addr_high_r 16
; yosys-smt2-wire mem_addr_high_r 16
(define-fun |data_writer_sv_n mem_addr_high_r| ((state |data_writer_sv_s|)) (_ BitVec 16) (|data_writer_sv#4| state))
; yosys-smt2-wire mem_addr_low 4
(define-fun |data_writer_sv_n mem_addr_low| ((state |data_writer_sv_s|)) (_ BitVec 4) ((_ extract 3 0) (|data_writer_sv#5| state)))
; yosys-smt2-anyinit data_writer_sv#6 16 data_writer_sv.sv:63.5-100.8
; yosys-smt2-witness {"offset": 0, "path": ["\\tdata_rrr"], "smtname": 6, "smtoffset": 0, "type": "init", "width": 16}
(declare-fun |data_writer_sv#6| (|data_writer_sv_s|) (_ BitVec 16)) ; \tdata_rrr
; yosys-smt2-output mem_di 16
; yosys-smt2-wire mem_di 16
(define-fun |data_writer_sv_n mem_di| ((state |data_writer_sv_s|)) (_ BitVec 16) (|data_writer_sv#6| state))
; yosys-smt2-anyinit data_writer_sv#7 16 data_writer_sv.sv:63.5-100.8
; yosys-smt2-witness {"offset": 0, "path": ["\\mem_en_r"], "smtname": 7, "smtoffset": 0, "type": "init", "width": 16}
(declare-fun |data_writer_sv#7| (|data_writer_sv_s|) (_ BitVec 16)) ; \mem_en_r
; yosys-smt2-output mem_en 16
; yosys-smt2-wire mem_en 16
(define-fun |data_writer_sv_n mem_en| ((state |data_writer_sv_s|)) (_ BitVec 16) (|data_writer_sv#7| state))
(define-fun |data_writer_sv#8| ((state |data_writer_sv_s|)) (_ BitVec 16) (bvshl #b0000000000000001 (concat #b000000000000 ((_ extract 3 0) (|data_writer_sv#5| state))))) ; \mem_en_i
; yosys-smt2-wire mem_en_i 16
(define-fun |data_writer_sv_n mem_en_i| ((state |data_writer_sv_s|)) (_ BitVec 16) (|data_writer_sv#8| state))
; yosys-smt2-register mem_en_r 16
; yosys-smt2-wire mem_en_r 16
(define-fun |data_writer_sv_n mem_en_r| ((state |data_writer_sv_s|)) (_ BitVec 16) (|data_writer_sv#7| state))
; yosys-smt2-anyinit data_writer_sv#9 1 data_writer_sv.sv:63.5-100.8
; yosys-smt2-witness {"offset": 0, "path": ["\\tvalid_rrr"], "smtname": 9, "smtoffset": 0, "type": "init", "width": 1}
(declare-fun |data_writer_sv#9| (|data_writer_sv_s|) (_ BitVec 1)) ; \tvalid_rrr
; yosys-smt2-output mem_we 1
; yosys-smt2-wire mem_we 1
(define-fun |data_writer_sv_n mem_we| ((state |data_writer_sv_s|)) Bool (= ((_ extract 0 0) (|data_writer_sv#9| state)) #b1))
(declare-fun |data_writer_sv#10| (|data_writer_sv_s|) Bool) ; \rstn
; yosys-smt2-input rstn 1
; yosys-smt2-wire rstn 1
; yosys-smt2-witness {"offset": 0, "path": ["\\rstn"], "smtname": "rstn", "smtoffset": 0, "type": "input", "width": 1}
(define-fun |data_writer_sv_n rstn| ((state |data_writer_sv_s|)) Bool (|data_writer_sv#10| state))
(declare-fun |data_writer_sv#11| (|data_writer_sv_s|) (_ BitVec 16)) ; \s_axis_tdata
; yosys-smt2-input s_axis_tdata 16
; yosys-smt2-wire s_axis_tdata 16
; yosys-smt2-witness {"offset": 0, "path": ["\\s_axis_tdata"], "smtname": "s_axis_tdata", "smtoffset": 0, "type": "input", "width": 16}
(define-fun |data_writer_sv_n s_axis_tdata| ((state |data_writer_sv_s|)) (_ BitVec 16) (|data_writer_sv#11| state))
; yosys-smt2-anyinit data_writer_sv#12 1 data_writer_sv.sv:63.5-100.8
; yosys-smt2-witness {"offset": 0, "path": ["\\tready_r"], "smtname": 12, "smtoffset": 0, "type": "init", "width": 1}
(declare-fun |data_writer_sv#12| (|data_writer_sv_s|) (_ BitVec 1)) ; \tready_r
; yosys-smt2-output s_axis_tready 1
; yosys-smt2-wire s_axis_tready 1
(define-fun |data_writer_sv_n s_axis_tready| ((state |data_writer_sv_s|)) Bool (= ((_ extract 0 0) (|data_writer_sv#12| state)) #b1))
(declare-fun |data_writer_sv#13| (|data_writer_sv_s|) Bool) ; \s_axis_tvalid
; yosys-smt2-input s_axis_tvalid 1
; yosys-smt2-wire s_axis_tvalid 1
; yosys-smt2-witness {"offset": 0, "path": ["\\s_axis_tvalid"], "smtname": "s_axis_tvalid", "smtoffset": 0, "type": "input", "width": 1}
(define-fun |data_writer_sv_n s_axis_tvalid| ((state |data_writer_sv_s|)) Bool (|data_writer_sv#13| state))
; yosys-smt2-anyinit data_writer_sv#14 2 data_writer_sv.sv:107.5-128.8
; yosys-smt2-witness {"offset": 0, "path": ["\\state"], "smtname": 14, "smtoffset": 0, "type": "init", "width": 2}
(declare-fun |data_writer_sv#14| (|data_writer_sv_s|) (_ BitVec 2)) ; \state
; yosys-smt2-register state 2
; yosys-smt2-wire state 2
(define-fun |data_writer_sv_n state| ((state |data_writer_sv_s|)) (_ BitVec 2) (|data_writer_sv#14| state))
; yosys-smt2-anyinit data_writer_sv#15 16 data_writer_sv.sv:63.5-100.8
; yosys-smt2-witness {"offset": 0, "path": ["\\tdata_r"], "smtname": 15, "smtoffset": 0, "type": "init", "width": 16}
(declare-fun |data_writer_sv#15| (|data_writer_sv_s|) (_ BitVec 16)) ; \tdata_r
; yosys-smt2-register tdata_r 16
; yosys-smt2-wire tdata_r 16
(define-fun |data_writer_sv_n tdata_r| ((state |data_writer_sv_s|)) (_ BitVec 16) (|data_writer_sv#15| state))
; yosys-smt2-anyinit data_writer_sv#16 16 data_writer_sv.sv:63.5-100.8
; yosys-smt2-witness {"offset": 0, "path": ["\\tdata_rr"], "smtname": 16, "smtoffset": 0, "type": "init", "width": 16}
(declare-fun |data_writer_sv#16| (|data_writer_sv_s|) (_ BitVec 16)) ; \tdata_rr
; yosys-smt2-register tdata_rr 16
; yosys-smt2-wire tdata_rr 16
(define-fun |data_writer_sv_n tdata_rr| ((state |data_writer_sv_s|)) (_ BitVec 16) (|data_writer_sv#16| state))
; yosys-smt2-register tdata_rrr 16
; yosys-smt2-wire tdata_rrr 16
(define-fun |data_writer_sv_n tdata_rrr| ((state |data_writer_sv_s|)) (_ BitVec 16) (|data_writer_sv#6| state))
(define-fun |data_writer_sv#17| ((state |data_writer_sv_s|)) Bool (= (|data_writer_sv#14| state) #b11)) ; $eq$data_writer_sv.sv:93$88_Y
(define-fun |data_writer_sv#18| ((state |data_writer_sv_s|)) Bool (= (|data_writer_sv#14| state) #b10)) ; $procmux$111_CMP
(define-fun |data_writer_sv#19| ((state |data_writer_sv_s|)) Bool (or  (|data_writer_sv#17| state) (|data_writer_sv#18| state))) ; $auto$opt_reduce.cc:137:opt_pmux$181
(define-fun |data_writer_sv#20| ((state |data_writer_sv_s|)) (_ BitVec 1) (ite (|data_writer_sv#19| state) #b1 #b0)) ; \tready_i
; yosys-smt2-wire tready_i 1
(define-fun |data_writer_sv_n tready_i| ((state |data_writer_sv_s|)) Bool (= ((_ extract 0 0) (|data_writer_sv#20| state)) #b1))
; yosys-smt2-register tready_r 1
; yosys-smt2-wire tready_r 1
(define-fun |data_writer_sv_n tready_r| ((state |data_writer_sv_s|)) Bool (= ((_ extract 0 0) (|data_writer_sv#12| state)) #b1))
; yosys-smt2-anyinit data_writer_sv#21 1 data_writer_sv.sv:63.5-100.8
; yosys-smt2-witness {"offset": 0, "path": ["\\tvalid_r"], "smtname": 21, "smtoffset": 0, "type": "init", "width": 1}
(declare-fun |data_writer_sv#21| (|data_writer_sv_s|) (_ BitVec 1)) ; \tvalid_r
; yosys-smt2-register tvalid_r 1
; yosys-smt2-wire tvalid_r 1
(define-fun |data_writer_sv_n tvalid_r| ((state |data_writer_sv_s|)) Bool (= ((_ extract 0 0) (|data_writer_sv#21| state)) #b1))
; yosys-smt2-anyinit data_writer_sv#22 1 data_writer_sv.sv:63.5-100.8
; yosys-smt2-witness {"offset": 0, "path": ["\\tvalid_rr"], "smtname": 22, "smtoffset": 0, "type": "init", "width": 1}
(declare-fun |data_writer_sv#22| (|data_writer_sv_s|) (_ BitVec 1)) ; \tvalid_rr
; yosys-smt2-register tvalid_rr 1
; yosys-smt2-wire tvalid_rr 1
(define-fun |data_writer_sv_n tvalid_rr| ((state |data_writer_sv_s|)) Bool (= ((_ extract 0 0) (|data_writer_sv#22| state)) #b1))
; yosys-smt2-register tvalid_rrr 1
; yosys-smt2-wire tvalid_rrr 1
(define-fun |data_writer_sv_n tvalid_rrr| ((state |data_writer_sv_s|)) Bool (= ((_ extract 0 0) (|data_writer_sv#9| state)) #b1))
(define-fun |data_writer_sv#23| ((state |data_writer_sv_s|)) (_ BitVec 1) (bvnot (ite (|data_writer_sv#3| state) #b1 #b0))) ; $auto$rtlil.cc:3347:Not$192
; yosys-smt2-assume 0 $auto$formalff.cc:987:execute$193
(define-fun |data_writer_sv_u 0| ((state |data_writer_sv_s|)) Bool (or (= ((_ extract 0 0) (|data_writer_sv#23| state)) #b1) (not true))) ; $auto$formalff.cc:987:execute$193
(define-fun |data_writer_sv#24| ((state |data_writer_sv_s|)) (_ BitVec 1) (ite (|data_writer_sv#10| state) (|data_writer_sv#21| state) #b0)) ; $0\tvalid_rr[0:0]
(define-fun |data_writer_sv#25| ((state |data_writer_sv_s|)) (_ BitVec 1) (ite (|data_writer_sv#10| state) (ite (|data_writer_sv#13| state) #b1 #b0) #b0)) ; $0\tvalid_r[0:0]
(define-fun |data_writer_sv#26| ((state |data_writer_sv_s|)) (_ BitVec 16) (ite (|data_writer_sv#10| state) (|data_writer_sv#15| state) #b0000000000000000)) ; $0\tdata_rr[15:0]
(define-fun |data_writer_sv#27| ((state |data_writer_sv_s|)) (_ BitVec 16) (ite (|data_writer_sv#10| state) (|data_writer_sv#11| state) #b0000000000000000)) ; $0\tdata_r[15:0]
(define-fun |data_writer_sv#28| ((state |data_writer_sv_s|)) (_ BitVec 2) (ite (= ((_ extract 0 0) (|data_writer_sv#21| state)) #b1) (|data_writer_sv#14| state) #b10)) ; $procmux$112_Y
(define-fun |data_writer_sv#29| ((state |data_writer_sv_s|)) (_ BitVec 1) (ite (= ((_ extract 0 0) (|data_writer_sv#21| state)) #b1) #b1 #b0)) ; $auto$wreduce.cc:514:run$183 [0]
(define-fun |data_writer_sv#30| ((state |data_writer_sv_s|)) (_ BitVec 2) (ite (|data_writer_sv#2| state) (concat #b1 (|data_writer_sv#29| state)) #b00)) ; $procmux$120_Y
(define-fun |data_writer_sv#31| ((state |data_writer_sv_s|)) (_ BitVec 2) (ite (|data_writer_sv#2| state) #b01 (|data_writer_sv#14| state))) ; $procmux$124_Y
(define-fun |data_writer_sv#32| ((state |data_writer_sv_s|)) Bool (= (|data_writer_sv#14| state) #b01)) ; $eq$data_writer_sv.sv:91$87_Y
(define-fun |data_writer_sv#33| ((state |data_writer_sv_s|)) Bool (not (or  (= ((_ extract 0 0) (|data_writer_sv#14| state)) #b1) (= ((_ extract 1 1) (|data_writer_sv#14| state)) #b1)))) ; $procmux$126_CMP
(define-fun |data_writer_sv#34| ((state |data_writer_sv_s|)) (_ BitVec 2) (ite (|data_writer_sv#33| state) (|data_writer_sv#31| state) (ite (|data_writer_sv#32| state) #b10 (ite (|data_writer_sv#18| state) (|data_writer_sv#30| state) (ite (|data_writer_sv#17| state) (|data_writer_sv#28| state) (|data_writer_sv#14| state)))))) ; $procmux$114_Y
(define-fun |data_writer_sv#35| ((state |data_writer_sv_s|)) (_ BitVec 2) (ite (|data_writer_sv#10| state) (|data_writer_sv#34| state) #b00)) ; $0\state[1:0]
(define-fun |data_writer_sv#36| ((state |data_writer_sv_s|)) (_ BitVec 1) (ite (|data_writer_sv#10| state) (|data_writer_sv#20| state) #b0)) ; $0\tready_r[0:0]
(define-fun |data_writer_sv#37| ((state |data_writer_sv_s|)) (_ BitVec 1) (ite (|data_writer_sv#10| state) (|data_writer_sv#22| state) #b0)) ; $0\tvalid_rrr[0:0]
(define-fun |data_writer_sv#38| ((state |data_writer_sv_s|)) (_ BitVec 16) (ite (|data_writer_sv#10| state) (|data_writer_sv#8| state) #b0000000000000000)) ; $0\mem_en_r[15:0]
(define-fun |data_writer_sv#39| ((state |data_writer_sv_s|)) (_ BitVec 16) (ite (|data_writer_sv#10| state) (|data_writer_sv#16| state) #b0000000000000000)) ; $0\tdata_rrr[15:0]
(define-fun |data_writer_sv#40| ((state |data_writer_sv_s|)) (_ BitVec 20) (bvadd (|data_writer_sv#5| state) #b00000000000000000001)) ; $add$data_writer_sv.sv:94$89_Y
(define-fun |data_writer_sv#41| ((state |data_writer_sv_s|)) (_ BitVec 20) (ite (|data_writer_sv#17| state) (|data_writer_sv#40| state) (|data_writer_sv#5| state))) ; $procmux$157_Y
(define-fun |data_writer_sv#42| ((state |data_writer_sv_s|)) (_ BitVec 20) (ite (|data_writer_sv#32| state) ((_ extract 19 0) (|data_writer_sv#0| state)) (|data_writer_sv#41| state))) ; $procmux$160_Y
(define-fun |data_writer_sv#43| ((state |data_writer_sv_s|)) (_ BitVec 20) (ite (|data_writer_sv#10| state) (|data_writer_sv#42| state) #b00000000000000000000)) ; $0\mem_addr_full[19:0]
(define-fun |data_writer_sv#44| ((state |data_writer_sv_s|)) (_ BitVec 16) (ite (|data_writer_sv#10| state) ((_ extract 19 4) (|data_writer_sv#5| state)) #b0000000000000000)) ; $0\mem_addr_high_r[15:0]
(define-fun |data_writer_sv_a| ((state |data_writer_sv_s|)) Bool 
  (|$paramod/synchronizer_n_sv/N=s32'00000000000000000000000000000010_a| (|data_writer_sv_h sync0| state))
)
(define-fun |data_writer_sv_u| ((state |data_writer_sv_s|)) Bool (and
  (|data_writer_sv_u 0| state)
  (|$paramod/synchronizer_n_sv/N=s32'00000000000000000000000000000010_u| (|data_writer_sv_h sync0| state))
))
(define-fun |data_writer_sv_i| ((state |data_writer_sv_s|)) Bool 
  (|$paramod/synchronizer_n_sv/N=s32'00000000000000000000000000000010_i| (|data_writer_sv_h sync0| state))
)
(define-fun |data_writer_sv_h| ((state |data_writer_sv_s|)) Bool (and
  (= (|data_writer_sv_is| state) (|$paramod/synchronizer_n_sv/N=s32'00000000000000000000000000000010_is| (|data_writer_sv_h sync0| state)))
  (= (|data_writer_sv#3| state) (|$paramod/synchronizer_n_sv/N=s32'00000000000000000000000000000010_n clk| (|data_writer_sv_h sync0| state))) ; $paramod/synchronizer_n_sv/N=s32'00000000000000000000000000000010.clk
  (= (|data_writer_sv#1| state) (|$paramod/synchronizer_n_sv/N=s32'00000000000000000000000000000010_n data_in| (|data_writer_sv_h sync0| state))) ; $paramod/synchronizer_n_sv/N=s32'00000000000000000000000000000010.data_in
  (= (|data_writer_sv#2| state) (|$paramod/synchronizer_n_sv/N=s32'00000000000000000000000000000010_n data_out| (|data_writer_sv_h sync0| state))) ; $paramod/synchronizer_n_sv/N=s32'00000000000000000000000000000010.data_out
  (= (|data_writer_sv#10| state) (|$paramod/synchronizer_n_sv/N=s32'00000000000000000000000000000010_n rstn| (|data_writer_sv_h sync0| state))) ; $paramod/synchronizer_n_sv/N=s32'00000000000000000000000000000010.rstn
  (|$paramod/synchronizer_n_sv/N=s32'00000000000000000000000000000010_h| (|data_writer_sv_h sync0| state))
))
(define-fun |data_writer_sv_t| ((state |data_writer_sv_s|) (next_state |data_writer_sv_s|)) Bool (and
  (= (|data_writer_sv#24| state) (|data_writer_sv#22| next_state)) ; $procdff$174 \tvalid_rr
  (= (|data_writer_sv#25| state) (|data_writer_sv#21| next_state)) ; $procdff$173 \tvalid_r
  (= (|data_writer_sv#26| state) (|data_writer_sv#16| next_state)) ; $procdff$171 \tdata_rr
  (= (|data_writer_sv#27| state) (|data_writer_sv#15| next_state)) ; $procdff$170 \tdata_r
  (= (|data_writer_sv#35| state) (|data_writer_sv#14| next_state)) ; $procdff$168 \state
  (= (|data_writer_sv#36| state) (|data_writer_sv#12| next_state)) ; $procdff$169 \tready_r
  (= (|data_writer_sv#37| state) (|data_writer_sv#9| next_state)) ; $procdff$175 \tvalid_rrr
  (= (|data_writer_sv#38| state) (|data_writer_sv#7| next_state)) ; $procdff$176 \mem_en_r
  (= (|data_writer_sv#39| state) (|data_writer_sv#6| next_state)) ; $procdff$172 \tdata_rrr
  (= (|data_writer_sv#43| state) (|data_writer_sv#5| next_state)) ; $procdff$177 \mem_addr_full
  (= (|data_writer_sv#44| state) (|data_writer_sv#4| next_state)) ; $procdff$178 \mem_addr_high_r
  (|$paramod/synchronizer_n_sv/N=s32'00000000000000000000000000000010_t| (|data_writer_sv_h sync0| state) (|data_writer_sv_h sync0| next_state))
)) ; end of module data_writer_sv
; yosys-smt2-topmod data_writer_sv
; end of yosys output
